52
27 25 159
25 46 186
46 28 523
28 29 260
29 52 480
52 1 187
1 6 45
6 41 76
41 20 290
20 16 253
16 2 217
2 44 220
44 18 75
18 40 92
40 7 64
7 8 183
8 9 83
9 32 501
32 42 365
42 14 242
14 37 61
37 39 35
39 38 43
38 35 43
35 34 15
34 48 85
48 31 50
31 21 97
21 17 116
17 30 80
30 22 152
22 19 94
19 49 35
49 15 130
15 45 156
45 43 131
43 33 80
33 36 76
36 47 60
47 23 16
23 4 32
4 5 35
5 3 70
3 24 109
24 11 245
11 50 188
50 10 285
10 51 399
51 13 319
13 12 206
12 26 185
26 27 110

